Fe-bcc str #: 3
1.00
  1.41793000  1.41793000 -1.41793000
 -1.41793000  1.41793000  1.41793000
  5.67172000  0.00000000  5.67172000
  Fe Co  
  2 2  
Dir
  0.00000000   0.00000000   0.00000000
  0.50000000   0.50000000   0.25000000
  0.00000000   0.00000000   0.50000000
  0.50000000   0.50000000   0.75000000
